NAME : portgen-30-107
COMMENT : portgen N=30, seed=107
TYPE : TSP
DIMENSION : 30
EDGE_WEIGHT_TYPE : EUC_2D
NODE_COORD_SECTION
1 750 2172
2 1995 1909
3 681 2195
4 990 2739
5 2475 2650
6 1813 300
7 478 2154
8 1372 487
9 2927 410
10 266 3019
11 289 971
12 547 1846
13 2616 1968
14 2726 2161
15 2084 1134
16 1788 885
17 3091 1937
18 1784 1875
19 2315 633
20 360 320
21 605 2472
22 269 282
23 205 1261
24 1059 42
25 857 158
26 3092 1931
27 1592 2125
28 1569 3027
29 2244 57
30 124 1969
